2
1000 6
43
128 1 13
129 1 8
130 1 9
131 1 14
132 1 15
90 1 12
91 1 6
92 1 9
93 1 10
94 1 14
95 1 15
96 1 11
97 1 8
98 1 13
99 1 8
100 1 17
101 1 15
102 1 11
103 1 11
104 1 13
105 1 13
106 1 12
107 1 14
108 1 9
109 1 7
110 1 12
111 1 12
112 1 13
113 1 11
114 1 12
115 1 15
116 1 10
117 1 12
118 1 20
119 1 10
120 1 15
121 1 10
122 1 7
123 1 12
124 1 8
125 1 16
126 1 9
127 1 9
